249 1000
1 401
2 252
3 347
4 384
5 258
6 358
7 451
8 268 18 21 36 43 45 46 48 50 51 56 57 59 64 70 71 77 90 98 99 100 102 105 115 138 153 157 159 163 168 174 177 185 192 193 194 211 220 221 222 224 227 230 235 242 249
9 281
10 407 36 45 48 50 51 56 57 59 90 98 100 102 105 138 153 177 194 211 220 221 222 227 235
11 292
12 301 36 98 100 102 211
13 405
14 271
15 324
16 389
17 292
18 319 21 27 33 36 43 45 46 48 50 51 56 57 59 64 70 71 77 90 94 98 99 100 102 105 107 108 113 114 115 120 132 138 152 153 157 159 163 168 174 176 177 183 185 192 193 194 202 207 211 220 221 222 224 227 230 235 242 248 249
19 430 36 57 59 90 98 100 102 105 153 177 194 211 221 222 235
20 266
21 304 27 33 36 43 45 46 48 50 51 56 57 59 64 70 71 77 90 94 98 99 100 102 105 107 108 113 114 115 120 132 138 152 153 157 159 163 168 174 176 177 183 185 192 193 194 202 207 211 220 221 222 224 227 230 235 242 248 249
22 468
23 259
24 273 36 59 98 100 102 177 211
25 460
26 261
27 279 36 43 45 48 50 51 56 57 59 64 70 71 77 90 98 99 100 102 105 115 138 153 159 168 174 177 185 192 194 211 220 221 222 224 227 235
28 486 36 98 100 102 211
29 250
30 264 36 98 100 102 211
31 406
32 254
33 340 36 43 45 48 50 51 56 57 59 64 70 71 77 90 98 99 100 102 105 115 138 153 159 168 174 177 185 192 194 211 220 221 222 224 227 235
34 380
35 307
36 313 42 43 45 46 48 49 50 51 53 55 56 57 59 64 66 70 71 72 77 87 90 94 98 99 100 102 103 105 107 108 113 114 115 120 121 132 138 143 152 153 157 159 163 168 174 176 177 183 185 192 193 194 195 202 203 207 211 214 218 219 220 221 222 224 227 230 231 235 242 243 248 249
37 450
38 271
39 279
40 381
41 275
42 344 59 98 100 102 177 211
43 411 45 46 48 50 51 56 57 59 64 70 71 77 90 94 98 99 100 102 105 107 108 113 114 115 120 132 138 152 153 157 159 163 168 174 176 177 183 185 192 193 194 202 207 211 220 221 222 224 227 230 235 242 248 249
44 253
45 336 46 48 50 51 53 56 57 59 64 70 71 77 90 94 98 99 100 102 105 107 108 113 114 115 120 132 138 152 153 157 159 163 168 174 176 177 183 185 192 193 194 195 202 203 207 211 218 219 220 221 222 224 227 230 235 242 243 248 249
46 361 48 50 51 56 57 59 64 70 71 77 90 94 98 99 100 102 105 107 108 114 115 132 138 153 157 159 163 168 174 176 177 183 185 192 193 194 202 207 211 220 221 222 224 227 230 235 242 248 249
47 264
48 375 50 51 53 56 57 59 64 70 71 77 90 94 98 99 100 102 105 107 108 113 114 115 120 132 138 152 153 157 159 163 168 174 176 177 183 185 192 193 194 195 202 203 207 211 218 219 220 221 222 224 227 230 235 242 243 248 249
49 430 98 100 211
50 266 51 53 56 57 59 64 70 71 77 90 94 98 99 100 102 105 107 108 113 114 115 120 132 138 152 153 157 159 163 168 174 176 177 183 185 192 193 194 195 202 203 207 211 218 219 220 221 222 224 227 230 235 242 243 248 249
51 304 53 56 57 59 64 70 71 77 90 94 98 99 100 102 105 107 108 113 114 115 120 132 138 152 153 157 159 163 168 174 176 177 183 185 192 193 194 195 202 203 207 211 214 218 219 220 221 222 224 227 230 235 242 243 248 249
52 392
53 261 56 57 59 90 98 100 102 105 138 153 177 194 211 220 221 222 227 235
54 347
55 419 59 98 100 102 153 177 194 211 221
56 278 57 59 64 70 71 77 90 94 98 99 100 102 105 107 108 113 114 115 120 132 138 152 153 157 159 163 168 174 176 177 183 185 192 193 194 195 202 203 207 211 218 219 220 221 222 224 227 230 235 242 243 248 249
57 303 59 64 66 70 71 77 90 94 98 99 100 102 105 107 108 113 114 115 120 132 138 152 153 157 159 163 168 174 176 177 183 185 192 193 194 195 202 203 207 211 214 218 219 220 221 222 224 227 230 231 235 242 243 248 249
58 465
59 258 64 66 70 71 72 77 90 94 98 99 100 102 105 107 108 113 114 115 120 121 132 138 152 153 157 159 163 168 174 176 177 183 185 192 193 194 195 202 203 207 211 214 218 219 220 221 222 224 227 230 231 235 242 243 248 249
60 277
61 495
62 250
63 255
64 418 70 71 77 90 94 98 99 100 102 105 107 108 113 114 115 132 138 152 153 157 159 163 168 174 176 177 183 185 192 193 194 202 207 211 220 221 222 224 227 230 235 242 248 249
65 277 211
66 305 90 98 100 102 105 153 177 194 211 221 222 235
67 377
68 292
69 331
70 426 71 77 90 94 98 99 100 102 105 107 108 114 115 132 138 153 157 159 163 168 174 176 177 183 185 192 193 194 202 207 211 220 221 222 224 227 230 235 242 248 249
71 260 77 90 94 98 99 100 102 105 107 108 114 115 132 138 153 157 159 163 168 174 176 177 183 185 192 193 194 202 207 211 220 221 222 224 227 230 235 242 248 249
72 314 98 100 102 153 177 194 211 221
73 412
74 261
75 327
76 494
77 250 90 94 98 99 100 102 105 107 108 113 114 115 120 132 138 152 153 157 159 163 168 174 176 177 183 185 192 193 194 202 207 211 220 221 222 224 227 230 235 242 248 249
78 256
79 379
80 303
81 318
82 488
83 254
84 258
85 380
86 252
87 368 98 100 211
88 468
89 261
90 271 94 98 99 100 102 105 107 108 113 114 115 120 132 138 152 153 157 159 163 168 174 176 177 183 185 192 193 194 195 202 203 207 211 214 218 219 220 221 222 224 227 230 231 235 242 243 248 249
91 354 98 100 211
92 287
93 359
94 499 98 99 100 102 105 115 138 153 157 159 163 168 174 177 185 192 193 194 211 220 221 222 224 227 230 235 242 249
95 250
96 251
97 443
98 258 99 100 102 103 105 107 108 113 114 115 120 121 132 138 143 152 153 157 159 163 168 174 176 177 178 183 185 192 193 194 195 202 203 207 211 214 218 219 220 221 222 224 227 230 231 235 242 243 248 249
99 299 100 102 105 107 108 113 114 115 120 132 138 152 153 157 159 163 168 174 176 177 183 185 192 193 194 202 207 211 220 221 222 224 227 230 235 242 248 249
100 497 102 103 105 107 108 113 114 115 120 121 132 138 143 152 153 157 159 163 168 174 176 177 178 183 185 192 193 194 195 202 203 207 211 214 218 219 220 221 222 224 227 230 231 235 242 243 248 249
101 251
102 252 103 105 107 108 113 114 115 120 121 132 138 152 153 157 159 163 168 174 176 177 183 185 192 193 194 195 202 203 207 211 214 218 219 220 221 222 224 227 230 231 235 242 243 248 249
103 395 211
104 296
105 309 107 108 113 114 115 120 121 132 138 152 153 157 159 163 168 174 176 177 183 185 192 193 194 195 202 203 207 211 214 218 219 220 221 222 224 227 230 231 235 242 243 248 249
106 456
107 261 115 138 153 157 159 163 168 174 177 185 192 193 194 211 220 221 222 224 227 230 235 242 249
108 283 115 138 153 157 159 163 168 174 177 185 192 193 194 211 220 221 222 224 227 230 235 242 249
109 371
110 274
111 355
112 480
113 254 115 138 153 159 174 177 185 192 194 211 220 221 222 224 227 235
114 266 115 138 153 157 159 163 168 174 177 185 192 193 194 211 220 221 222 224 227 230 235 242 249
115 471 132 138 153 157 159 163 168 174 176 177 183 185 192 193 194 202 207 211 220 221 222 224 227 230 235 242 248 249
116 252
117 277
118 404
119 255
120 341 138 153 159 174 177 185 194 211 220 221 222 224 227 235
121 468 153 177 194 211 221 222
122 262
123 270
124 417
125 287
126 296
127 425
128 284
129 291
130 461
131 255
132 284 138 153 157 159 163 168 174 177 185 192 193 194 211 220 221 222 224 227 230 235 242 249
133 488
134 253
135 259
136 417
137 259
138 324 152 153 157 159 163 168 174 176 177 183 185 192 193 194 202 207 211 219 220 221 222 224 227 230 235 242 248 249
139 440
140 264
141 296
142 436
143 260 211
144 304
145 374
146 289
147 337
148 392
149 278
150 330
151 489
152 255 153 159 174 177 185 192 194 211 220 221 222 224 227 235
153 256 157 159 163 168 174 176 177 183 185 192 193 194 195 202 203 207 211 214 218 219 220 221 222 224 227 230 231 235 242 243 248 249
154 383
155 267
156 350
157 415 159 163 168 174 176 177 183 185 192 193 194 202 207 211 220 221 222 224 227 230 235 242 248 249
158 285
159 300 163 168 174 176 177 183 185 192 193 194 202 207 211 220 221 222 224 227 230 235 242 248 249
160 396
161 269
162 335
163 472 168 174 176 177 183 185 192 193 194 202 207 211 220 221 222 224 227 230 235 242 248 249
164 262
165 266
166 420
167 259
168 321 174 176 177 183 185 192 193 194 202 207 211 220 221 222 224 227 230 235 242 248 249
169 498
170 250
171 252
172 444
173 253
174 303 176 177 183 185 192 193 194 202 207 211 220 221 222 224 227 230 235 242 248 249
175 433
176 270 177 185 192 193 194 211 220 221 222 224 227 230 235 242 249
177 297 183 185 192 193 194 195 202 203 207 211 214 218 219 220 221 222 224 227 230 231 235 242 243 248 249
178 447 211
179 262
180 291
181 355
182 254 211
183 391 185 192 193 194 211 220 221 222 224 227 230 235 242 249
184 476
185 258 192 193 194 202 207 211 220 221 222 224 227 230 235 242 248 249
186 266
187 462
188 262
189 276
190 468
191 254
192 278 193 194 202 207 211 220 221 222 224 227 230 235 242 248 249
193 377 194 202 207 211 220 221 222 224 227 230 235 242 248 249
194 258 195 202 203 207 211 214 218 219 220 221 222 224 227 230 231 235 242 243 248 249
195 365 211 221 222 235
196 430
197 266
198 304
199 449
200 268
201 283
202 449 211 220 221 222 224 227 230 235 242 249
203 256 211 221 222 235
204 295
205 468
206 256
207 276 211 220 221 222 224 227 230 235 242 249
208 412
209 253
210 335
211 498 214 218 219 220 221 222 224 227 230 231 235 242 243 248 249
212 250
213 252
214 470 221 222 235
215 259
216 271
217 376
218 305 221 222 235
219 319 220 221 222 227 235
220 396 221 222 224 227 230 235 242 248 249
221 282 222 224 227 230 231 235 242 243 248 249
222 322 224 227 230 231 235 242 243 248 249
223 419
224 268 227 230 235 242 248 249
225 313
226 462
227 254 230 235 242 248 249
228 284
229 370
230 298 235 242 248 249
231 332 235
232 352
233 283
234 365
235 363 242 243 248 249
236 254
237 383
238 427
239 284
240 289
241 470
242 254 248 249
243 276
244 460
245 260
246 280
247 397
248 253 249
249 350
